(set-option :incremental false)
(set-logic ALL)
(declare-const BAV1 Bool)
(declare-const BAV2 Bool)
(declare-const GEN6 Int)
(declare-const GEN5 Int)
(declare-const GEN4 Int)
(declare-const GEN3 Int)
(declare-const GEN2 Int)
(declare-const GEN1 Int)
(declare-fun a5 () (Array (_ BitVec 6) (_ BitVec 11)))
(declare-fun v2 () (_ BitVec 1))
(assert (= BAV1 (=> (= (_ bv0 11) (select a5 ((_ extract 7 2) ((_ sign_extend 9) v2)))) (bvule (select a5 (_ bv0 6)) (_ bv0 11)))))
(assert (= BAV2 (= (_ bv0 11) (select a5 ((_ extract 7 2) ((_ sign_extend 9) v2))))))
(check-sat-assuming ((=> (= (_ bv0 11) (select a5 ((_ extract 7 2) ((_ sign_extend 9) v2)))) (bvule (select a5 (_ bv0 6)) (_ bv0 11)))))
(get-model)